 219 50 4 8 9 12 13 16 21 25 28 29 30 33 34 36 38 39 40 46 47 
 5
 7 13 41 44 47
 9
 7 14 16 17 19 25 32 41 44
 8
 7 16 18 19 25 32 41 44
 9
 7 14 16 18 19 25 32 41 44
 8
 7 12 18 19 25 32 41 44
 8
 7 12 17 18 19 32 41 44
 8
 7 14 19 25 32 40 41 44
 7
 7 14 17 32 40 41 44
 5
 2 7 30 41 44
 6
 2 7 14 38 41 44
 7
 7 14 19 38 41 44 49
 8
 7 14 18 19 27 28 41 44
 9
 7 14 17 18 19 25 28 41 44
 8
 7 14 17 19 27 28 41 44
 8
 2 7 14 17 27 44 48 49
 7
 4 7 14 18 41 44 49
 8
 4 7 14 17 25 41 44 49
 6
 2 4 7 14 17 44
 8
 7 18 19 25 32 36 41 44
 8
 7 14 18 19 32 33 41 44
 5
 2 7 30 44 49
 8
 7 14 18 21 27 41 44 49
 9
 2 7 14 17 18 21 25 41 44
 8
 2 7 14 17 21 27 41 44
 8
 7 9 11 14 17 19 41 44
 9
 7 9 14 17 18 19 27 41 44
 8
 7 14 17 19 32 40 41 44
 6
 2 7 14 25 40 44
 6
 2 7 14 27 31 44
 9
 7 14 16 17 18 19 32 41 44
 8
 7 12 14 17 18 19 41 44
 8
 7 17 18 19 32 36 41 44
 9
 7 14 17 18 19 32 41 44 46
 7
 7 22 27 41 44 46 49
 9
 7 17 18 22 25 41 44 46 49
 7
 2 7 22 27 29 41 44
 6
 2 5 7 14 17 25
 6
 7 32 39 41 44 47
 6
 7 14 39 41 44 47
 8
 7 8 17 19 32 41 44 47
 7
 7 8 17 25 32 44 47
 8
 7 14 17 25 32 33 41 44
 6
 2 7 22 39 41 44
 6
 7 19 30 41 44 49
 8
 2 7 14 17 18 34 41 44
 8
 7 14 17 19 27 34 41 44
 7
 2 7 14 17 27 34 44
 8
 7 8 14 17 25 41 44 47
 8
 7 11 17 25 27 29 41 44
 6
 7 11 22 39 41 44
 6
 7 13 19 41 44 49
 7
 2 7 14 17 27 36 44
 6
 2 4 7 14 18 44
 8
 7 14 17 25 27 28 41 44
 8
 2 7 14 22 27 29 41 44
 7
 7 22 27 29 41 44 49
 8
 2 7 14 17 25 33 41 44
 6
 7 14 19 38 41 44
 6
 2 7 13 41 44 49
 9
 7 14 15 17 18 19 25 41 44
 8
 7 14 15 19 25 27 41 44
 9
 7 14 17 18 19 32 34 41 44
 7
 7 19 22 39 41 44 49
 6
 2 7 14 17 40 44
 8
 7 12 17 19 25 32 41 44
 7
 7 12 18 19 32 41 44
 8
 7 14 17 18 26 41 44 49
 8
 7 14 17 21 27 41 44 49
 7
 7 14 18 21 27 41 44
 8
 2 7 14 21 25 27 41 44
 8
 7 14 17 19 21 27 41 44
 8
 7 14 16 18 19 32 41 44
 8
 7 8 18 19 32 41 44 47
 9
 2 7 11 17 18 25 29 41 44
 8
 2 7 17 18 22 29 41 44
 9
 7 17 18 19 22 25 29 41 44
 9
 7 8 11 17 18 19 32 41 44
 9
 7 17 18 19 22 25 41 44 46
 8
 7 18 19 25 32 34 41 44
 8
 7 8 17 25 32 41 44 47
 7
 7 14 18 33 41 44 49
 7
 1 7 14 19 27 41 44
 9
 1 7 14 17 18 19 32 41 44
 8
 7 14 19 25 27 28 41 44
 6
 2 4 7 14 41 44
 7
 4 7 14 17 41 44 49
 7
 4 7 14 17 19 41 44
 8
 4 7 14 17 19 25 41 44
 7
 7 19 22 27 41 44 46
 8
 7 14 17 18 19 35 41 44
 5
 7 14 19 23 49
 5
 7 11 13 41 44
 9
 7 17 18 22 25 29 41 44 49
 7
 7 14 15 18 27 41 44
 8
 2 7 14 15 18 27 44 49
 7
 2 7 14 15 17 27 44
 7
 0 2 7 11 14 41 44
 8
 7 14 19 25 32 33 41 44
 6
 2 7 14 33 41 44
 7
 2 7 14 18 33 41 44
 8
 2 7 17 22 25 29 41 44
 8
 2 7 18 22 25 29 41 44
 7
 7 14 19 32 40 41 44
 7
 4 7 18 19 32 41 44
 8
 7 8 14 19 25 41 44 47
 8
 7 8 14 18 19 41 44 47
 7
 2 7 8 14 18 41 44
 6
 7 8 14 41 44 47
 8
 7 14 18 19 27 37 41 44
 7
 7 11 14 32 39 41 44
 5
 7 30 41 44 49
 8
 6 7 17 18 19 25 41 44
 8
 7 14 15 17 19 27 41 44
 7
 2 7 14 15 27 41 44
 8
 2 7 14 17 27 34 44 49
 7
 0 7 11 19 32 41 44
 8
 2 6 7 17 18 25 41 44
 9
 2 7 17 18 22 25 29 41 44
 8
 2 7 11 17 25 27 29 44
 8
 7 8 14 17 18 41 44 49
 6
 7 10 14 17 32 44
 6
 7 10 14 19 44 49
 8
 7 19 22 27 29 41 44 49
 8
 7 11 18 19 27 29 41 44
 9
 7 11 17 18 19 25 29 41 44
 7
 7 18 19 32 36 41 44
 7
 7 14 17 33 41 44 49
 8
 7 17 19 20 22 25 41 44
 8
 7 18 19 20 22 25 41 44
 8
 7 17 18 19 32 37 41 44
 7
 7 14 25 32 40 41 44
 8
 7 14 16 17 18 19 41 44
 8
 7 14 17 18 19 31 41 44
 5
 2 7 22 44 45
 8
 2 7 14 17 18 41 43 44
 8
 7 14 17 18 41 43 44 49
 7
 2 14 17 18 31 44 49
 6
 7 11 13 19 41 44
 7
 2 4 7 14 41 44 49
 6
 2 5 7 14 18 44
 6
 2 7 14 27 35 44
 7
 7 14 19 27 35 41 44
 7
 7 11 19 41 44 45 49
 6
 7 14 22 41 44 45
 5
 7 11 41 42 44
 6
 7 14 22 41 42 44
 7
 7 14 22 41 42 44 49
 8
 6 7 17 18 25 41 44 49
 8
 2 7 14 17 18 25 31 44
 6
 6 7 27 41 44 49
 8
 2 7 14 17 18 35 41 44
 6
 2 14 27 31 44 49
 7
 7 14 19 27 31 41 44
 7
 2 7 14 17 18 31 44
 7
 4 7 17 19 32 41 44
 9
 7 14 17 18 19 25 35 41 44
 8
 2 3 7 11 14 17 41 44
 8
 3 7 14 17 19 41 44 47
 9
 3 7 11 17 19 25 27 41 44
 7
 3 7 11 14 41 44 47
 7
 5 7 14 17 25 44 49
 8
 7 18 19 25 32 37 41 44
 7
 5 7 14 18 19 41 44
 9
 7 14 17 18 19 25 31 41 44
 7
 2 7 14 18 31 41 44
 8
 2 7 14 18 25 35 41 44
 8
 7 14 17 19 26 27 41 44
 7
 2 7 14 17 26 27 44
 8
 7 14 19 25 26 27 41 44
 8
 2 7 14 18 21 27 41 44
 8
 2 7 14 18 27 44 48 49
 7
 7 14 18 27 41 44 48
 8
 7 14 18 27 41 44 48 49
 6
 2 5 7 14 25 44
 8
 7 17 18 19 32 41 43 44
 8
 7 14 19 21 25 27 41 44
 8
 7 14 17 19 32 33 41 44
 8
 7 14 17 19 27 37 41 44
 8
 7 14 18 25 41 43 44 49
 8
 7 14 17 19 27 41 44 48
 8
 7 14 19 25 27 41 44 48
 9
 7 14 17 19 27 41 44 48 49
 7
 2 7 14 17 27 44 48
 6
 7 14 24 27 41 44
 7
 7 14 24 27 41 44 49
 8
 2 7 14 18 24 41 44 49
 8
 7 14 17 18 24 41 44 49
 7
 2 7 14 18 24 41 44
 9
 7 14 17 18 19 24 32 41 44
 8
 7 17 18 24 25 32 41 44
 8
 2 7 14 17 24 41 44 49
 8
 2 7 14 17 18 36 41 44
 7
 7 11 19 22 39 41 44
 9
 3 7 11 17 18 25 27 41 44
 8
 1 7 14 18 19 32 41 44
 8
 1 7 14 17 18 19 41 44
 7
 7 9 11 14 25 41 44
 10
 3 7 11 14 17 18 19 27 41 44
 8
 7 8 19 25 32 41 44 47
 7
 7 14 19 32 33 41 44
 9
 7 14 17 18 19 41 44 48 49
 7
 2 7 18 27 44 48 49
 6
 2 5 14 18 44 49
 8
 2 7 14 15 27 41 44 49
 7
 2 7 14 15 18 27 44
 7
 2 7 14 18 27 44 48
 7
 2 7 14 24 27 41 44
 8
 2 7 14 17 18 25 26 44
 7
 2 7 14 25 26 27 44
 8
 0 2 7 14 17 18 27 44
 8
 2 7 18 20 22 25 41 44
 6
 7 11 19 41 42 44
 6
 7 10 14 19 32 44
 6
 2 7 11 44 45 49
 6
 2 6 7 27 41 44
 8
 4 7 17 19 25 32 41 44
 6
 7 14 32 41 42 44
 8
 7 19 22 27 41 44 46 49
 7
 7 14 19 22 42 44 49
